20 43
1 2 5
1 3 1
1 4 5
1 5 3
2 3 2
2 4 1
2 5 3
3 4 3
3 5 5
4 5 3
5 6 1
6 7 5
6 8 2
6 9 2
6 10 2
7 8 2
7 9 1
7 10 3
8 9 2
8 10 5
9 10 4
10 11 2
11 12 5
11 13 5
11 14 1
11 15 5
12 13 1
12 14 5
12 15 3
13 14 3
13 15 2
14 15 2
15 16 2
16 17 3
16 18 3
16 19 1
16 20 2
17 18 5
17 19 1
17 20 1
18 19 1
18 20 4
19 20 4
